
Value of objective function: -1.00000000

Actual values of the variables:
b_1_1                           1
b_1_2                           0
b_1_3                           0
b_2_1                           1
b_2_2                           0
b_2_3                           0
b_3_1                           0
b_3_2                           1
b_3_3                           0
b_4_1                           0
b_4_2                           1
b_4_3                           0
p_1                             1
p_2                             1
p_3                             0
